Set parameter TokenServer to value "opt-license.discovery.wisc.edu"
Set parameter LazyConstraints to value 1
Set parameter TimeLimit to value 1800
Gurobi Optimizer version 9.5.1 build v9.5.1rc2 (linux64)
Thread count: 40 physical cores, 80 logical processors, using up to 32 threads
Optimize a model with 3025 rows, 2916 columns and 11610 nonzeros
Model fingerprint: 0x8ee5f908
Variable types: 0 continuous, 2916 integer (2916 binary)
Coefficient statistics:
  Matrix range     [1e+00, 1e+03]
  Objective range  [1e+00, 9e+00]
  Bounds range     [1e+00, 1e+00]
  RHS range        [1e+00, 6e+00]
Presolve removed 54 rows and 0 columns
Presolve time: 0.05s
Presolved: 2971 rows, 2916 columns, 11610 nonzeros
Variable types: 0 continuous, 2916 integer (2916 binary)

Root relaxation: objective 5.960265e+01, 984 iterations, 0.05 seconds (0.04 work units)

    Nodes    |    Current Node    |     Objective Bounds      |     Work
 Expl Unexpl |  Obj  Depth IntInf | Incumbent    BestBd   Gap | It/Node Time

     0     0   59.60265    0   53          -   59.60265      -     -    0s
     0     0   60.41605    0   31          -   60.41605      -     -    1s
     0     0   60.48219    0   49          -   60.48219      -     -    1s
     0     0   60.54252    0   72          -   60.54252      -     -    1s
     0     0   60.55083    0   72          -   60.55083      -     -    1s
     0     0   60.63104    0  180          -   60.63104      -     -    1s
     0     0   60.64285    0  162          -   60.64285      -     -    1s
     0     0   60.64653    0  162          -   60.64653      -     -    1s
     0     0   60.64653    0  162          -   60.64653      -     -    1s
H    0     0                      61.4066887   60.64653  1.24%     -    2s
H    0     0                      61.2285432   60.64653  0.95%     -    2s
     0     0   60.64653    0   36   61.22854   60.64653  0.95%     -    2s
     0     0   60.71722    0   52   61.22854   60.71722  0.84%     -    2s
     0     0   60.91606    0   52   61.22854   60.91606  0.51%     -    2s
     0     0   60.92953    0   39   61.22854   60.92953  0.49%     -    2s
     0     0   60.94162    0   65   61.22854   60.94162  0.47%     -    2s
     0     0   60.94203    0   66   61.22854   60.94203  0.47%     -    2s
     0     0   60.96325    0   64   61.22854   60.96325  0.43%     -    2s
     0     0   60.96325    0    8   61.22854   60.96325  0.43%     -    2s
     0     0   60.96325    0   13   61.22854   60.96325  0.43%     -    2s
     0     0   61.08967    0   14   61.22854   61.08967  0.23%     -    2s
     0     0   61.19557    0   10   61.22854   61.19557  0.05%     -    2s
     0     0     cutoff    0        61.22854   61.22854  0.00%     -    2s

Cutting planes:
  Gomory: 4
  Lift-and-project: 1
  Cover: 1
  MIR: 1
  StrongCG: 2
  GUB cover: 2

Explored 1 nodes (2043 simplex iterations) in 2.59 seconds (0.46 work units)
Thread count was 32 (of 80 available processors)

Solution count 2: 61.2285 61.4067 

Optimal solution found (tolerance 1.00e-04)
Best objective 6.122854315746e+01, best bound 6.122854315746e+01, gap 0.0000%

User-callback calls 632, time in user-callback 1.53 sec
cuts :  221
